c is-sat
p cnf 10 72
-3 -5 -6 0
-5 8 3 0
-6 10 7 0
-2 -1 -7 0
1 -2 -8 0
-4 -3 5 0
8 9 -3 0
-5 -3 4 0
-8 -3 6 0
5 3 -2 0
-4 -2 -8 0
-9 -8 -2 0
-8 -10 -9 0
-6 -8 -10 0
-10 -3 -5 0
-10 6 -8 0
-5 -2 -8 0
-7 -2 -3 0
-7 3 -2 0
-10 -7 -5 0
-9 5 1 0
-7 4 -1 0
8 -9 1 0
2 -7 -1 0
-6 -1 -4 0
-9 -4 -10 0
7 -4 -6 0
3 1 10 0
10 7 2 0
-1 -9 7 0
7 -3 8 0
-9 -4 -5 0
7 -8 -2 0
-9 2 -8 0
5 -4 -10 0
-7 -8 2 0
7 -5 -8 0
4 3 -6 0
-6 9 -1 0
-7 4 10 0
6 -5 -4 0
-1 -9 -6 0
8 -5 1 0
-4 -5 -10 0
2 -3 5 0
-6 -4 -7 0
-5 -10 -7 0
-7 10 -9 0
-9 -5 -1 0
2 -5 -1 0
9 -4 -2 0
9 -10 -4 0
-8 10 4 0
5 -9 1 0
5 -8 3 0
7 -5 1 0
-9 -2 3 0
9 -10 -8 0
-5 10 -4 0
5 -1 10 0
10 -3 7 0
-9 1 8 0
-1 -3 -10 0
4 -10 -2 0
-10 -2 -9 0
3 -1 10 0
-7 6 -8 0
-2 1 3 0
6 -8 -3 0
1 -2 3 0
8 -9 4 0
5 7 -1 0
